Minimize
	value: tt

Subject to
tt + 1024 s_1_1 > 0.0
tt - t_1_1 - 1029.779651 s_1_1 + 5.779651 s_1_6 > -1007.004950
tt + 1024 s_2_1 > 0.0
tt - t_2_1 - 1030.679806 s_2_1 + 6.679806 s_2_6 > -1007.303900
tt + 1024 s_1_2 > 0.0
tt - t_1_2 - 1029.779651 s_1_2 + 5.779651 s_1_7 > -1005.842811
tt + 1024 s_2_2 > 0.0
tt - t_2_2 - 1030.679806 s_2_2 + 6.679806 s_2_7 > -1006.602643
tt + 1024 s_1_3 > 0.0
tt - t_1_3 - 1029.779651 s_1_3 + 5.779651 s_1_7 > -994.343075
tt + 1024 s_2_3 > 0.0
tt - t_2_3 - 1030.679806 s_2_3 + 6.679806 s_2_7 > -1001.783867
tt + 1024 s_1_4 > 0.0
tt - t_1_4 - 1032.778508 s_1_4 + 8.778508 s_1_7 > -1008.782467
tt + 1024 s_2_4 > 0.0
tt - t_2_4 - 1033.974864 s_2_4 + 9.974864 s_2_7 > -1014.187567
tt + 1024 s_1_5 > 0.0
tt - t_1_5 - 1035.559302 s_1_5 + 11.559302 s_1_7 > -1001.655892
tt + 1024 s_2_5 > 0.0
tt - t_2_5 - 1037.359613 s_2_5 + 13.359613 s_2_7 > -1007.513500
tt + 1024 s_1_6 > 0.0
tt - t_1_6 - 1024.000000 s_1_6 > -961.703200
tt + 1024 s_2_6 > 0.0
tt - t_2_6 - 1024.000000 s_2_6 > -996.711300
tt + 1024 s_1_7 > 0.0
tt - t_1_7 - 1024.000000 s_1_7 > -961.705171
tt + 1024 s_2_7 > 0.0
tt - t_2_7 - 1024.000000 s_2_7 > -996.869500
tt + 1024 s_1_8 > 0.0
tt - t_1_8 - 1061.485709 s_1_8 + 37.485709 s_1_2 > -1022.804667
tt + 1024 s_2_8 > 0.0
tt - t_2_8 - 1065.188221 s_2_8 + 41.188221 s_2_2 > -1015.878900
s_1_1 + s_2_1  = 1
s_1_2 + s_2_2  = 1
s_1_3 + s_2_3  = 1
s_1_4 + s_2_4  = 1
s_1_5 + s_2_5  = 1
s_1_6 + s_2_6  = 1
s_1_7 + s_2_7  = 1
s_1_8 + s_2_8  = 1
s_1_1 + s_1_2 + 1024 r_1_1_2 >= 2
- s_1_1 - s_1_2 - 1024 r_1_1_2 >= -1025
t_1_1 - t_1_2 - 1024.000000 u_1_1_2 - 5.779651 s_1_2 + 5.779651 s_1_7 + 2048.000000 r_1_1_2 > -1005.842811
s_2_1 + s_2_2 + 1024 r_2_1_2 >= 2
- s_2_1 - s_2_2 - 1024 r_2_1_2 >= -1025
t_2_1 - t_2_2 - 1024.000000 u_2_1_2 - 6.679806 s_2_2 + 6.679806 s_2_7 + 2048.000000 r_2_1_2 > -1006.602643
s_1_1 + s_1_3 + 1024 r_1_1_3 >= 2
- s_1_1 - s_1_3 - 1024 r_1_1_3 >= -1025
t_1_1 - t_1_3 - 1024.000000 u_1_1_3 - 5.779651 s_1_3 + 5.779651 s_1_7 + 2048.000000 r_1_1_3 > -994.343075
s_2_1 + s_2_3 + 1024 r_2_1_3 >= 2
- s_2_1 - s_2_3 - 1024 r_2_1_3 >= -1025
t_2_1 - t_2_3 - 1024.000000 u_2_1_3 - 6.679806 s_2_3 + 6.679806 s_2_7 + 2048.000000 r_2_1_3 > -1001.783867
s_1_1 + s_1_4 + 1024 r_1_1_4 >= 2
- s_1_1 - s_1_4 - 1024 r_1_1_4 >= -1025
t_1_1 - t_1_4 - 1024.000000 u_1_1_4 - 4.389254 s_1_4 + 4.389254 s_1_7 + 2048.000000 r_1_1_4 > -1008.782467
s_2_1 + s_2_4 + 1024 r_2_1_4 >= 2
- s_2_1 - s_2_4 - 1024 r_2_1_4 >= -1025
t_2_1 - t_2_4 - 1024.000000 u_2_1_4 - 4.987432 s_2_4 + 4.987432 s_2_7 + 2048.000000 r_2_1_4 > -1014.187567
s_1_1 + s_1_5 + 1024 r_1_1_5 >= 2
- s_1_1 - s_1_5 - 1024 r_1_1_5 >= -1025
t_1_1 - t_1_5 - 1024.000000 u_1_1_5 - 5.779651 s_1_5 + 5.779651 s_1_7 + 2048.000000 r_1_1_5 > -1001.655892
s_2_1 + s_2_5 + 1024 r_2_1_5 >= 2
- s_2_1 - s_2_5 - 1024 r_2_1_5 >= -1025
t_2_1 - t_2_5 - 1024.000000 u_2_1_5 - 6.679806 s_2_5 + 6.679806 s_2_7 + 2048.000000 r_2_1_5 > -1007.513500
t_1_1 - t_1_6 - 1024.000000 s_1_6 > -961.703200
t_1_1 - t_2_6 - 1024.000000 s_2_6 > -996.711300
t_2_1 - t_1_6 - 1024.000000 s_1_6 > -961.703200
t_2_1 - t_2_6 - 1024.000000 s_2_6 > -996.711300
s_1_1 + s_1_7 + 1024 r_1_1_7 >= 2
- s_1_1 - s_1_7 - 1024 r_1_1_7 >= -1025
t_1_1 - t_1_7 - 1024.000000 u_1_1_7 + 2048.000000 r_1_1_7 > -961.705171
s_2_1 + s_2_7 + 1024 r_2_1_7 >= 2
- s_2_1 - s_2_7 - 1024 r_2_1_7 >= -1025
t_2_1 - t_2_7 - 1024.000000 u_2_1_7 + 2048.000000 r_2_1_7 > -996.869500
t_1_8 - t_1_1 - 22.774701 s_1_1 + 5.779651 s_1_6 > 0.0
t_1_8 - t_2_1 - 23.375906 s_2_1 + 6.679806 s_2_6 > 0.0
t_2_8 - t_1_1 - 22.774701 s_1_1 + 5.779651 s_1_6 > 0.0
t_2_8 - t_2_1 - 23.375906 s_2_1 + 6.679806 s_2_6 > 0.0
s_1_2 + s_1_1 + 1024 r_1_1_2 >= 2
- s_1_2 - s_1_1 - 1024 r_1_1_2 >= -1025
t_1_2 - t_1_1 + 1024.000000 u_1_1_2 - 5.779651 s_1_1 + 5.779651 s_1_6 + 2048.000000 r_1_1_2 > 16.995050
s_2_2 + s_2_1 + 1024 r_2_1_2 >= 2
- s_2_2 - s_2_1 - 1024 r_2_1_2 >= -1025
t_2_2 - t_2_1 + 1024.000000 u_2_1_2 - 6.679806 s_2_1 + 6.679806 s_2_6 + 2048.000000 r_2_1_2 > 16.696100
s_1_2 + s_1_3 + 1024 r_1_2_3 >= 2
- s_1_2 - s_1_3 - 1024 r_1_2_3 >= -1025
t_1_2 - t_1_3 - 1024.000000 u_1_2_3 - 5.779651 s_1_3 + 5.779651 s_1_7 + 2048.000000 r_1_2_3 > -994.343075
s_2_2 + s_2_3 + 1024 r_2_2_3 >= 2
- s_2_2 - s_2_3 - 1024 r_2_2_3 >= -1025
t_2_2 - t_2_3 - 1024.000000 u_2_2_3 - 6.679806 s_2_3 + 6.679806 s_2_7 + 2048.000000 r_2_2_3 > -1001.783867
s_1_2 + s_1_4 + 1024 r_1_2_4 >= 2
- s_1_2 - s_1_4 - 1024 r_1_2_4 >= -1025
t_1_2 - t_1_4 - 1024.000000 u_1_2_4 - 4.389254 s_1_4 + 4.389254 s_1_7 + 2048.000000 r_1_2_4 > -1008.782467
s_2_2 + s_2_4 + 1024 r_2_2_4 >= 2
- s_2_2 - s_2_4 - 1024 r_2_2_4 >= -1025
t_2_2 - t_2_4 - 1024.000000 u_2_2_4 - 4.987432 s_2_4 + 4.987432 s_2_7 + 2048.000000 r_2_2_4 > -1014.187567
s_1_2 + s_1_5 + 1024 r_1_2_5 >= 2
- s_1_2 - s_1_5 - 1024 r_1_2_5 >= -1025
t_1_2 - t_1_5 - 1024.000000 u_1_2_5 - 5.779651 s_1_5 + 5.779651 s_1_7 + 2048.000000 r_1_2_5 > -1001.655892
s_2_2 + s_2_5 + 1024 r_2_2_5 >= 2
- s_2_2 - s_2_5 - 1024 r_2_2_5 >= -1025
t_2_2 - t_2_5 - 1024.000000 u_2_2_5 - 6.679806 s_2_5 + 6.679806 s_2_7 + 2048.000000 r_2_2_5 > -1007.513500
s_1_2 + s_1_6 + 1024 r_1_2_6 >= 2
- s_1_2 - s_1_6 - 1024 r_1_2_6 >= -1025
t_1_2 - t_1_6 - 1024.000000 u_1_2_6 + 2048.000000 r_1_2_6 > -961.703200
s_2_2 + s_2_6 + 1024 r_2_2_6 >= 2
- s_2_2 - s_2_6 - 1024 r_2_2_6 >= -1025
t_2_2 - t_2_6 - 1024.000000 u_2_2_6 + 2048.000000 r_2_2_6 > -996.711300
t_1_2 - t_1_7 - 1024.000000 s_1_7 > -961.705171
t_1_2 - t_2_7 - 1024.000000 s_2_7 > -996.869500
t_2_2 - t_1_7 - 1024.000000 s_1_7 > -961.705171
t_2_2 - t_2_7 - 1024.000000 s_2_7 > -996.869500
t_1_8 - t_1_2 - 23.936840 s_1_2 + 5.779651 s_1_7 > 0.0
t_1_8 - t_2_2 - 24.077164 s_2_2 + 6.679806 s_2_7 > 0.0
t_2_8 - t_1_2 - 23.936840 s_1_2 + 5.779651 s_1_7 > 0.0
t_2_8 - t_2_2 - 24.077164 s_2_2 + 6.679806 s_2_7 > 0.0
s_1_3 + s_1_1 + 1024 r_1_1_3 >= 2
- s_1_3 - s_1_1 - 1024 r_1_1_3 >= -1025
t_1_3 - t_1_1 + 1024.000000 u_1_1_3 - 5.779651 s_1_1 + 5.779651 s_1_6 + 2048.000000 r_1_1_3 > 16.995050
s_2_3 + s_2_1 + 1024 r_2_1_3 >= 2
- s_2_3 - s_2_1 - 1024 r_2_1_3 >= -1025
t_2_3 - t_2_1 + 1024.000000 u_2_1_3 - 6.679806 s_2_1 + 6.679806 s_2_6 + 2048.000000 r_2_1_3 > 16.696100
s_1_3 + s_1_2 + 1024 r_1_2_3 >= 2
- s_1_3 - s_1_2 - 1024 r_1_2_3 >= -1025
t_1_3 - t_1_2 + 1024.000000 u_1_2_3 - 5.779651 s_1_2 + 5.779651 s_1_7 + 2048.000000 r_1_2_3 > 18.157189
s_2_3 + s_2_2 + 1024 r_2_2_3 >= 2
- s_2_3 - s_2_2 - 1024 r_2_2_3 >= -1025
t_2_3 - t_2_2 + 1024.000000 u_2_2_3 - 6.679806 s_2_2 + 6.679806 s_2_7 + 2048.000000 r_2_2_3 > 17.397357
t_1_4 - t_1_3 - 35.436577 s_1_3 + 5.779651 s_1_7 > 0.0
t_1_4 - t_2_3 - 28.895940 s_2_3 + 6.679806 s_2_7 > 0.0
t_2_4 - t_1_3 - 35.436577 s_1_3 + 5.779651 s_1_7 > 0.0
t_2_4 - t_2_3 - 28.895940 s_2_3 + 6.679806 s_2_7 > 0.0
s_1_3 + s_1_5 + 1024 r_1_3_5 >= 2
- s_1_3 - s_1_5 - 1024 r_1_3_5 >= -1025
t_1_3 - t_1_5 - 1024.000000 u_1_3_5 - 5.779651 s_1_5 + 5.779651 s_1_7 + 2048.000000 r_1_3_5 > -1001.655892
s_2_3 + s_2_5 + 1024 r_2_3_5 >= 2
- s_2_3 - s_2_5 - 1024 r_2_3_5 >= -1025
t_2_3 - t_2_5 - 1024.000000 u_2_3_5 - 6.679806 s_2_5 + 6.679806 s_2_7 + 2048.000000 r_2_3_5 > -1007.513500
s_1_3 + s_1_6 + 1024 r_1_3_6 >= 2
- s_1_3 - s_1_6 - 1024 r_1_3_6 >= -1025
t_1_3 - t_1_6 - 1024.000000 u_1_3_6 + 2048.000000 r_1_3_6 > -961.703200
s_2_3 + s_2_6 + 1024 r_2_3_6 >= 2
- s_2_3 - s_2_6 - 1024 r_2_3_6 >= -1025
t_2_3 - t_2_6 - 1024.000000 u_2_3_6 + 2048.000000 r_2_3_6 > -996.711300
t_1_3 - t_1_7 - 1024.000000 s_1_7 > -961.705171
t_1_3 - t_2_7 - 1024.000000 s_2_7 > -996.869500
t_2_3 - t_1_7 - 1024.000000 s_1_7 > -961.705171
t_2_3 - t_2_7 - 1024.000000 s_2_7 > -996.869500
t_1_8 - t_1_3 - 35.436577 s_1_3 + 5.779651 s_1_7 > 0.0
t_1_8 - t_2_3 - 28.895940 s_2_3 + 6.679806 s_2_7 > 0.0
t_2_8 - t_1_3 - 35.436577 s_1_3 + 5.779651 s_1_7 > 0.0
t_2_8 - t_2_3 - 28.895940 s_2_3 + 6.679806 s_2_7 > 0.0
s_1_4 + s_1_1 + 1024 r_1_1_4 >= 2
- s_1_4 - s_1_1 - 1024 r_1_1_4 >= -1025
t_1_4 - t_1_1 + 1024.000000 u_1_1_4 - 5.779651 s_1_1 + 5.779651 s_1_6 + 2048.000000 r_1_1_4 > 16.995050
s_2_4 + s_2_1 + 1024 r_2_1_4 >= 2
- s_2_4 - s_2_1 - 1024 r_2_1_4 >= -1025
t_2_4 - t_2_1 + 1024.000000 u_2_1_4 - 6.679806 s_2_1 + 6.679806 s_2_6 + 2048.000000 r_2_1_4 > 16.696100
s_1_4 + s_1_2 + 1024 r_1_2_4 >= 2
- s_1_4 - s_1_2 - 1024 r_1_2_4 >= -1025
t_1_4 - t_1_2 + 1024.000000 u_1_2_4 - 5.779651 s_1_2 + 5.779651 s_1_7 + 2048.000000 r_1_2_4 > 18.157189
s_2_4 + s_2_2 + 1024 r_2_2_4 >= 2
- s_2_4 - s_2_2 - 1024 r_2_2_4 >= -1025
t_2_4 - t_2_2 + 1024.000000 u_2_2_4 - 6.679806 s_2_2 + 6.679806 s_2_7 + 2048.000000 r_2_2_4 > 17.397357
s_1_4 + s_1_5 + 1024 r_1_4_5 >= 2
- s_1_4 - s_1_5 - 1024 r_1_4_5 >= -1025
t_1_4 - t_1_5 - 1024.000000 u_1_4_5 - 5.779651 s_1_5 + 5.779651 s_1_7 + 2048.000000 r_1_4_5 > -1001.655892
s_2_4 + s_2_5 + 1024 r_2_4_5 >= 2
- s_2_4 - s_2_5 - 1024 r_2_4_5 >= -1025
t_2_4 - t_2_5 - 1024.000000 u_2_4_5 - 6.679806 s_2_5 + 6.679806 s_2_7 + 2048.000000 r_2_4_5 > -1007.513500
s_1_4 + s_1_6 + 1024 r_1_4_6 >= 2
- s_1_4 - s_1_6 - 1024 r_1_4_6 >= -1025
t_1_4 - t_1_6 - 1024.000000 u_1_4_6 + 2048.000000 r_1_4_6 > -961.703200
s_2_4 + s_2_6 + 1024 r_2_4_6 >= 2
- s_2_4 - s_2_6 - 1024 r_2_4_6 >= -1025
t_2_4 - t_2_6 - 1024.000000 u_2_4_6 + 2048.000000 r_2_4_6 > -996.711300
t_1_4 - t_1_7 - 1024.000000 s_1_7 > -961.705171
t_1_4 - t_2_7 - 1024.000000 s_2_7 > -996.869500
t_2_4 - t_1_7 - 1024.000000 s_1_7 > -961.705171
t_2_4 - t_2_7 - 1024.000000 s_2_7 > -996.869500
t_1_8 - t_1_4 - 19.606787 s_1_4 + 4.389254 s_1_7 > 0.0
t_1_8 - t_2_4 - 14.799865 s_2_4 + 4.987432 s_2_7 > 0.0
t_2_8 - t_1_4 - 19.606787 s_1_4 + 4.389254 s_1_7 > 0.0
t_2_8 - t_2_4 - 14.799865 s_2_4 + 4.987432 s_2_7 > 0.0
s_1_5 + s_1_1 + 1024 r_1_1_5 >= 2
- s_1_5 - s_1_1 - 1024 r_1_1_5 >= -1025
t_1_5 - t_1_1 + 1024.000000 u_1_1_5 - 5.779651 s_1_1 + 5.779651 s_1_6 + 2048.000000 r_1_1_5 > 16.995050
s_2_5 + s_2_1 + 1024 r_2_1_5 >= 2
- s_2_5 - s_2_1 - 1024 r_2_1_5 >= -1025
t_2_5 - t_2_1 + 1024.000000 u_2_1_5 - 6.679806 s_2_1 + 6.679806 s_2_6 + 2048.000000 r_2_1_5 > 16.696100
s_1_5 + s_1_2 + 1024 r_1_2_5 >= 2
- s_1_5 - s_1_2 - 1024 r_1_2_5 >= -1025
t_1_5 - t_1_2 + 1024.000000 u_1_2_5 - 5.779651 s_1_2 + 5.779651 s_1_7 + 2048.000000 r_1_2_5 > 18.157189
s_2_5 + s_2_2 + 1024 r_2_2_5 >= 2
- s_2_5 - s_2_2 - 1024 r_2_2_5 >= -1025
t_2_5 - t_2_2 + 1024.000000 u_2_2_5 - 6.679806 s_2_2 + 6.679806 s_2_7 + 2048.000000 r_2_2_5 > 17.397357
s_1_5 + s_1_3 + 1024 r_1_3_5 >= 2
- s_1_5 - s_1_3 - 1024 r_1_3_5 >= -1025
t_1_5 - t_1_3 + 1024.000000 u_1_3_5 - 5.779651 s_1_3 + 5.779651 s_1_7 + 2048.000000 r_1_3_5 > 29.656925
s_2_5 + s_2_3 + 1024 r_2_3_5 >= 2
- s_2_5 - s_2_3 - 1024 r_2_3_5 >= -1025
t_2_5 - t_2_3 + 1024.000000 u_2_3_5 - 6.679806 s_2_3 + 6.679806 s_2_7 + 2048.000000 r_2_3_5 > 22.216133
s_1_5 + s_1_4 + 1024 r_1_4_5 >= 2
- s_1_5 - s_1_4 - 1024 r_1_4_5 >= -1025
t_1_5 - t_1_4 + 1024.000000 u_1_4_5 - 4.389254 s_1_4 + 4.389254 s_1_7 + 2048.000000 r_1_4_5 > 15.217533
s_2_5 + s_2_4 + 1024 r_2_4_5 >= 2
- s_2_5 - s_2_4 - 1024 r_2_4_5 >= -1025
t_2_5 - t_2_4 + 1024.000000 u_2_4_5 - 4.987432 s_2_4 + 4.987432 s_2_7 + 2048.000000 r_2_4_5 > 9.812433
t_1_5 - t_1_6 - 1024.000000 s_1_6 > -961.703200
t_1_5 - t_2_6 - 1024.000000 s_2_6 > -996.711300
t_2_5 - t_1_6 - 1024.000000 s_1_6 > -961.703200
t_2_5 - t_2_6 - 1024.000000 s_2_6 > -996.711300
t_1_5 - t_1_7 - 1024.000000 s_1_7 > -961.705171
t_1_5 - t_2_7 - 1024.000000 s_2_7 > -996.869500
t_2_5 - t_1_7 - 1024.000000 s_1_7 > -961.705171
t_2_5 - t_2_7 - 1024.000000 s_2_7 > -996.869500
t_1_8 - t_1_5 - 28.123759 s_1_5 + 5.779651 s_1_7 > 0.0
t_1_8 - t_2_5 - 23.166306 s_2_5 + 6.679806 s_2_7 > 0.0
t_2_8 - t_1_5 - 28.123759 s_1_5 + 5.779651 s_1_7 > 0.0
t_2_8 - t_2_5 - 23.166306 s_2_5 + 6.679806 s_2_7 > 0.0
s_1_6 + s_1_2 + 1024 r_1_2_6 >= 2
- s_1_6 - s_1_2 - 1024 r_1_2_6 >= -1025
t_1_6 - t_1_2 + 1024.000000 u_1_2_6 - 5.779651 s_1_2 + 5.779651 s_1_7 + 2048.000000 r_1_2_6 > 18.157189
s_2_6 + s_2_2 + 1024 r_2_2_6 >= 2
- s_2_6 - s_2_2 - 1024 r_2_2_6 >= -1025
t_2_6 - t_2_2 + 1024.000000 u_2_2_6 - 6.679806 s_2_2 + 6.679806 s_2_7 + 2048.000000 r_2_2_6 > 17.397357
s_1_6 + s_1_3 + 1024 r_1_3_6 >= 2
- s_1_6 - s_1_3 - 1024 r_1_3_6 >= -1025
t_1_6 - t_1_3 + 1024.000000 u_1_3_6 - 5.779651 s_1_3 + 5.779651 s_1_7 + 2048.000000 r_1_3_6 > 29.656925
s_2_6 + s_2_3 + 1024 r_2_3_6 >= 2
- s_2_6 - s_2_3 - 1024 r_2_3_6 >= -1025
t_2_6 - t_2_3 + 1024.000000 u_2_3_6 - 6.679806 s_2_3 + 6.679806 s_2_7 + 2048.000000 r_2_3_6 > 22.216133
s_1_6 + s_1_4 + 1024 r_1_4_6 >= 2
- s_1_6 - s_1_4 - 1024 r_1_4_6 >= -1025
t_1_6 - t_1_4 + 1024.000000 u_1_4_6 - 4.389254 s_1_4 + 4.389254 s_1_7 + 2048.000000 r_1_4_6 > 15.217533
s_2_6 + s_2_4 + 1024 r_2_4_6 >= 2
- s_2_6 - s_2_4 - 1024 r_2_4_6 >= -1025
t_2_6 - t_2_4 + 1024.000000 u_2_4_6 - 4.987432 s_2_4 + 4.987432 s_2_7 + 2048.000000 r_2_4_6 > 9.812433
s_1_6 + s_1_7 + 1024 r_1_6_7 >= 2
- s_1_6 - s_1_7 - 1024 r_1_6_7 >= -1025
t_1_6 - t_1_7 - 1024.000000 u_1_6_7 + 2048.000000 r_1_6_7 > -961.705171
s_2_6 + s_2_7 + 1024 r_2_6_7 >= 2
- s_2_6 - s_2_7 - 1024 r_2_6_7 >= -1025
t_2_6 - t_2_7 - 1024.000000 u_2_6_7 + 2048.000000 r_2_6_7 > -996.869500
s_1_7 + s_1_1 + 1024 r_1_1_7 >= 2
- s_1_7 - s_1_1 - 1024 r_1_1_7 >= -1025
t_1_7 - t_1_1 + 1024.000000 u_1_1_7 - 5.779651 s_1_1 + 5.779651 s_1_6 + 2048.000000 r_1_1_7 > 16.995050
s_2_7 + s_2_1 + 1024 r_2_1_7 >= 2
- s_2_7 - s_2_1 - 1024 r_2_1_7 >= -1025
t_2_7 - t_2_1 + 1024.000000 u_2_1_7 - 6.679806 s_2_1 + 6.679806 s_2_6 + 2048.000000 r_2_1_7 > 16.696100
s_1_7 + s_1_6 + 1024 r_1_6_7 >= 2
- s_1_7 - s_1_6 - 1024 r_1_6_7 >= -1025
t_1_7 - t_1_6 + 1024.000000 u_1_6_7 + 2048.000000 r_1_6_7 > 62.296800
s_2_7 + s_2_6 + 1024 r_2_6_7 >= 2
- s_2_7 - s_2_6 - 1024 r_2_6_7 >= -1025
t_2_7 - t_2_6 + 1024.000000 u_2_6_7 + 2048.000000 r_2_6_7 > 27.288700
Binary
s_1_1
s_2_1
s_1_2
s_2_2
s_1_3
s_2_3
s_1_4
s_2_4
s_1_5
s_2_5
s_1_6
s_2_6
s_1_7
s_2_7
s_1_8
s_2_8
u_1_1_2
r_1_1_2
u_2_1_2
r_2_1_2
u_1_1_3
r_1_1_3
u_2_1_3
r_2_1_3
u_1_1_4
r_1_1_4
u_2_1_4
r_2_1_4
u_1_1_5
r_1_1_5
u_2_1_5
r_2_1_5
u_1_1_7
r_1_1_7
u_2_1_7
r_2_1_7
u_1_2_3
r_1_2_3
u_2_2_3
r_2_2_3
u_1_2_4
r_1_2_4
u_2_2_4
r_2_2_4
u_1_2_5
r_1_2_5
u_2_2_5
r_2_2_5
u_1_2_6
r_1_2_6
u_2_2_6
r_2_2_6
u_1_3_5
r_1_3_5
u_2_3_5
r_2_3_5
u_1_3_6
r_1_3_6
u_2_3_6
r_2_3_6
u_1_4_5
r_1_4_5
u_2_4_5
r_2_4_5
u_1_4_6
r_1_4_6
u_2_4_6
r_2_4_6
u_1_6_7
r_1_6_7
u_2_6_7
r_2_6_7

End
